s td 316 9 345
b 1 34 60 262
b 2 42 169 284
b 3 55 269 316
b 4 21 71 201
b 5 21 194 201
b 6 77 159 301
b 7 80 82 180
b 8 10 90 170
b 9 95 214 233
b 10 133 165 292
b 11 41 135 251
b 12 3 154 245
b 13 10 170 333
b 14 10 13 333
b 15 195 271 338
b 16 3 113
b 17 247 284
b 18 292 322
b 19 114 236 300
b 20 138 266 314
b 21 67 156 321
b 22 39 295 342
b 23 68 287 345
b 24 22 26 106 256
b 25 23 45 129 298
b 26 31 33 191
b 27 39 262 295
b 28 54 262 295
b 29 41 149 251
b 30 149 251 272
b 31 54 148 262
b 32 27 64 322
b 33 67 78 156
b 34 60 68 287
b 35 82 171 180
b 36 87 98 143
b 37 26 106 256 259
b 38 26 259 311
b 39 113 259 311
b 40 259 311
b 41 89 311
b 42 89 150 260
b 43 114 189 236
b 44 120 241 243
b 45 129 298 313
b 46 285 298 313
b 47 110 136 309
b 48 138 266 313
b 49 149 255 272
b 50 78 140 156
b 51 79 159 301
b 52 79 282 301
b 53 13 79 282
b 54 13 79 333
b 55 79 146 333
b 56 101 146
b 57 48 171 180
b 58 194 201 260
b 59 200 232 312
b 60 201 230 260
b 61 230 260 334
b 62 214 233 277
b 63 189 211 236
b 64 153 241 243
b 65 115 244 341
b 66 121 247 316
b 67 150 260 334
b 68 60 148 262
b 69 14 266 313
b 70 182 269 316
b 71 121 182 316
b 72 121 182 273
b 73 148 182 273
b 74 183 271 338
b 75 111 255 272
b 76 111 119 142 255
b 77 119 185 255
b 78 185 303
b 79 107 213 275
b 80 285 313 324
b 81 60 287 341
b 82 128 166 252 291
b 83 49 128 166 252
b 84 258 293 306
b 85 6 211 303
b 86 27 322 336
b 87 150 183 338
b 88 11 50 221 344
b 89 50 221 238 344
b 90 15 242 265 323
b 91 19 118 124 234
b 92 27 115 336 341
b 93 115 139 336 341
b 94 60 139 148 341
b 95 139 148 336 341
b 96 148 273 336
b 97 225 273 336
b 98 225 250 273
b 99 30 102 127 340
b 100 17 32 66 278
b 101 17 66 132 278
b 102 17 103 132 278
b 103 17 103 117 132
b 104 35 104 112 234
b 105 37 43 219 335
b 106 49 128 166 181
b 107 92 128 166 181
b 108 92 166 181 241
b 109 50 221 238 310
b 110 25 51 65 330
b 111 52 93 150 315
b 112 43 62 83 144
b 113 43 63 83 144
b 114 43 63 144 189
b 115 43 189 219 335
b 116 1 6 24 109 173 189 212 222 343
b 117 109 140 173 189 212 222 343
b 118 109 116 140 189 198 227 249
b 119 109 116 189 198 227 229 249
b 120 2 116 198 229
b 121 18 109 116 189 227 229 249
b 122 18 91 116 189 227 229 249
b 123 18 91 116 189 215 229 249
b 124 7 18 91 116 189 215 229
b 125 7 18 91 176 189 215 229
b 126 7 18 91 176 215 318
b 127 7 25 176 215 318
b 128 25 58 176 318
b 129 25 215 318 330
b 130 25 65 215 330
b 131 18 91 176 318 326
b 132 18 117 176 318 326
b 133 18 117 132 326
b 134 18 103 117 132
b 135 7 176 189 229 340
b 136 7 102 176 189 340
b 137 7 102 155 176 340
b 138 7 81 155 340
b 139 102 176 189 226 340
b 140 102 127 226 340
b 141 102 176 226 296
b 142 7 116 215 229 254
b 143 7 88 215 254
b 144 91 158 215 249
b 145 18 91 192 227
b 146 116 140 198 214 227 237 249
b 147 116 196 198 214 227 237 249
b 148 75 116 196 198 214 237 249
b 149 75 116 196 198 214 237 319
b 150 75 116 198 214 237 294 319
b 151 36 116 198 214 237 294 319
b 152 5 36 116 198 294
b 153 36 72 198 214 237 294 319
b 154 36 72 197 198 214 237 319
b 155 36 72 197 198 214 257
b 156 36 197 198 214 235 257
b 157 36 44 198 235 257 288
b 158 36 44 198 283 288
b 159 44 46 283 288
b 160 101 198 283 288
b 161 44 134 235 257 288
b 162 44 134 235 246 288
b 163 134 151 235 246
b 164 126 134 151 235
b 165 44 134 246 288 329
b 166 44 134 235 257 280
b 167 36 44 257 320
b 168 72 141 197 237 319
b 169 197 202 214 237
b 170 59 75 116 294 319
b 171 59 116 281 294
b 172 168 196 227 249
b 173 140 214 227 237 277
b 174 140 216 227 237 277
b 175 140 216 223 277
b 176 216 237 277 339
b 177 9 14 140 173 212 222 343
b 178 9 14 140 212 327 331
b 179 9 53 140 212 327 331
b 180 9 53 76 140 327 331
b 181 53 76 108 140 327 331
b 182 48 53 76 108 140 327
b 183 48 53 76 108 140 217
b 184 4 48 53 76 140 217
b 185 4 53 76 217 239
b 186 4 53 61 76 239
b 187 61 76 125 239
b 188 4 61 239 261
b 189 4 48 140 217 307
b 190 48 152 217 307
b 191 48 140 276 307
b 192 76 108 317 331
b 193 9 53 76 206 331
b 194 9 14 191 327 331
b 195 9 100 191 327 331
b 196 31 100 191 327
b 197 9 100 178 191
b 198 100 268 327 331
b 199 9 14 173 222 267 343
b 200 14 20 173 222 267
b 201 20 47 173 222
b 202 14 20 97 222 267
b 203 14 97 222 324
b 204 14 222 253 324
b 205 20 172 173 267
b 206 1 6 24 69 173 189 222
b 207 6 24 56 69 173 189 222
b 208 6 56 69 150 173 189 222
b 209 6 56 150 183 189
b 210 6 150 153 183 189 209
b 211 150 153 183 209 310
b 212 150 153 209 224 305 310
b 213 123 153 209 224 305 310
b 214 84 123 209 224 305 310
b 215 12 84 123 224 305
b 216 84 123 209 305 308 310
b 217 40 84 305 308 310
b 218 40 207 308 310
b 219 40 84 210 308
b 220 84 107 123 209 308
b 221 84 107 123 209 228
b 222 57 84 107 228
b 223 70 84 123 228
b 224 107 209 213 228
b 225 150 153 224 305 310 312
b 226 86 150 224 305 310 312
b 227 86 150 305 310 312 334
b 228 86 290 305 310 312 334
b 229 86 145 290 312 334
b 230 86 162 290 305 310 334
b 231 162 238 290 310 334
b 232 162 221 238 310
b 233 86 184 224 312
b 234 86 218 224 305
b 235 6 143 153 183 189 209
b 236 87 143 153 189
b 237 87 153 181 189
b 238 87 153 181 241
b 239 87 92 181 241
b 240 87 181 189 332
b 241 6 143 183 189 211
b 242 29 56 69 150 173 222
b 243 29 150 173 222 258
b 244 29 93 150 222 258
b 245 29 93 160 258
b 246 93 150 222 258 315
b 247 6 24 56 69 179
b 248 24 69 179 188
b 249 56 69 179 302
b 250 1 24 69 173 242
b 251 1 16 69 173 242
b 252 16 69 173 242 265
b 253 16 69 167 173 265
b 254 16 69 167 248 265
b 255 69 161 167 248 265
b 256 69 157 161 248 265
b 257 28 69 157 161
b 258 157 161 248 270
b 259 16 167 234 248 265
b 260 16 112 234 248 265
b 261 16 104 112 234
b 262 124 167 234 248
b 263 118 124 167 234
b 264 16 242 265 323
b 265 1 24 205 242
b 266 1 6 24 109 175 212 264 343
b 267 6 24 109 175 212 264 328
b 268 6 24 109 164 175 204 264 328
b 269 6 24 109 164 204 279 328
b 270 109 122 164 204 279 328
b 271 73 109 122 279 328
b 272 73 122 186 328
b 273 6 24 109 164 240 279
b 274 6 24 109 164 174 240
b 275 6 109 174 240 309
b 276 6 174 240 309 337
b 277 6 110 309 337
b 278 6 109 130 309
b 279 24 163 164 175 204 264 328
b 280 163 175 204 231 264 328
b 281 137 163 175 231 264
b 282 137 163 175 289
b 283 204 231 264 325 328
b 284 147 204 231 325 328
b 285 147 193 325 328
b 286 147 231 263 325
b 287 24 163 164 175 204 208
b 288 163 175 199 208
b 289 1 105 175 212 264 343
b 290 105 175 187 212 264
b 291 99 187 212 264
b 292 175 187 203 264
b 293 1 105 175 274 343
b 294 105 274 286 343
b 295 74 126 151 235
b 296 85 216 237 339
b 297 94 140 220 304
b 298 78 140 220 304
b 299 38 78 140 220
b 300 8 38 140 220
b 301 8 38 140 223
b 302 38 140 223 277
b 303 29 93 96 160
b 304 9 131 267 343
b 305 48 108 171 327
b 306 177 253 313 324
b 307 14 253 313 324
b 308 157 190 248 270
b 309 189 219 332 335
b 310 181 189 332 335
b 311 222 225 250 306
b 312 222 250 258 306
b 313 145 232 312 334
b 314 222 250 258 315
b 315 246 288 297 329
b 316 4 53 61 299
1 68
2 17
3 70
4 5
5 58
6 51
7 35
8 13
9 62
10 18
11 29
12 16
13 14
14 54
15 74
16 39
17 66
18 86
19 43
20 48
21 33
22 27
23 34
24 37
25 45
26 196
27 28
28 31
29 30
30 49
31 68
32 86
33 50
34 81
35 57
36 236
37 38
38 40
39 40
40 41
41 42
42 67
43 63
44 64
45 46
46 80
47 277
48 69
49 75
50 299
51 52
52 53
53 54
54 55
55 56
56 160
57 305
58 60
59 313
60 61
61 67
62 173
63 241
64 238
65 93
66 71
67 227
68 94
69 307
70 71
71 72
72 73
73 96
74 87
75 76
76 77
77 78
78 85
79 224
80 307
81 94
82 83
83 106
84 312
85 241
86 92
87 209
88 89
89 109
90 264
91 263
92 93
93 95
94 95
95 96
96 97
97 98
98 311
99 140
100 101
101 102
102 103
103 134
104 261
105 115
106 107
107 108
108 239
109 232
110 130
111 246
112 113
113 114
114 115
115 309
116 117
116 206
116 266
117 118
117 177
118 119
118 146
119 120
119 121
121 122
122 123
122 145
123 124
123 144
124 125
124 142
125 126
125 135
126 127
126 131
127 128
127 129
129 130
131 132
132 133
133 134
135 136
136 137
136 139
137 138
139 140
139 141
142 143
146 147
146 173
147 148
147 172
148 149
149 150
150 151
150 170
151 152
151 153
153 154
154 155
154 168
154 169
155 156
156 157
157 158
157 161
157 167
158 159
158 160
161 162
161 166
162 163
162 165
163 164
164 295
165 315
170 171
173 174
174 175
174 176
175 302
176 296
177 178
177 199
178 179
178 194
179 180
180 181
180 193
181 182
181 192
182 305
182 183
183 184
184 185
184 189
185 186
186 316
186 187
186 188
189 190
189 191
194 195
195 196
195 197
195 198
199 304
199 200
200 201
200 202
200 205
202 203
203 204
204 307
206 207
206 250
207 208
207 247
208 209
208 242
209 210
210 211
210 235
211 212
212 213
212 225
213 214
214 215
214 216
216 217
216 220
217 218
217 219
220 221
221 222
221 223
221 224
225 226
226 227
226 233
226 234
227 228
228 229
228 230
229 313
230 231
231 232
235 236
235 241
236 237
237 238
237 240
238 239
240 310
242 243
243 244
244 245
244 246
245 303
246 314
247 248
247 249
250 251
250 265
251 252
252 253
252 264
253 254
254 255
254 259
255 256
256 257
256 258
258 308
259 260
259 262
260 261
262 263
266 267
266 289
267 268
268 269
268 279
269 270
269 273
270 271
271 272
273 274
274 275
275 276
275 278
276 277
279 280
279 287
280 281
280 283
281 282
283 284
284 285
284 286
287 288
289 290
289 293
290 291
290 292
293 294
297 298
298 299
299 300
300 301
301 302
306 307
309 310
311 312
312 314
